c --- [ banner ] -------------------------------------------------------------
c 
c CaDiCaL Radically Simplified CDCL SAT Solver
c Copyright (c) 2016-2021 A. Biere, M. Fleury, N. Froleyks
c 
c Version 1.5.2 a5f15211db36c3956764e18194dd5bd63bf3b5e6
c g++ (GCC) 9.3.0 -Wall -Wextra -O3 -DNDEBUG
c Fri Oct 21 01:27:37 EDT 2022 Linux gra-login3 3.10.0-1160.66.1.el7.x86_64 x86_64
c 
c --- [ limit ] --------------------------------------------------------------
c 
c setting conflict limit to 200000 conflicts (due to '200000')
c 
c --- [ parsing input ] ------------------------------------------------------
c 
c reading DIMACS file from '33.cubes5924.adj'
c opening file to read '33.cubes5924.adj'
c found 'p cnf 6160 1595472' header
c parsed 1595472 clauses in 20.55 seconds process time
c closing file '33.cubes5924.adj'
c after reading 1457566755 bytes 1390.0 MB
c 
c --- [ options ] ------------------------------------------------------------
c 
c all options are set to their default value
c 
c --- [ solving ] ------------------------------------------------------------
c 
c time measured in process time since initialization
c 
c  seconds    reductions  redundant   irredundant
c          MB     restarts       trail       variables
c            level   conflicts       glue         remaining
c 
c * 20.55 1381  0 0   0    0    0  0% 0 1595422 2353 38%
c { 21.80 1438  0 0   0    0    0  0% 0 1595422 2353 38%
c i 22.64 1459 1046 0   0   14   10 35% 2 1595422 2336 38%
c i 24.48 1492 617 0   6   58   51 33% 7 1595422 2315 38%
c i 24.74 1494 570 0   8   63   55 33% 8 1595422 2314 38%
c i 24.75 1495 561 0   8   64   55 33% 8 1595422 2313 38%
c i 24.77 1495 543 0   8   66   56 33% 8 1595422 2312 38%
c i 26.54 1507 271 0  27  143  116 31% 17 1595422 2311 38%
c i 26.57 1507 267 0  28  145  117 31% 17 1595422 2310 38%
c i 26.58 1507 265 0  28  146  117 31% 16 1595422 2309 37%
c i 26.59 1507 262 0  29  148  118 31% 16 1595422 2308 37%
c i 26.60 1507 260 0  29  149  118 31% 16 1595422 2307 37%
c i 26.66 1507 246 0  31  158  126 32% 17 1595422 2306 37%
c i 26.69 1507 240 0  33  162  129 31% 17 1595422 2305 37%
c i 26.80 1508 225 0  35  173  139 31% 17 1595422 2304 37%
c i 26.80 1508 224 0  35  174  139 31% 17 1595422 2303 37%
c i 29.01 1515 185 0  54  257  212 29% 25 1595422 2302 37%
c i 29.53 1517 172 0  58  286  236 29% 24 1595422 2301 37%
c i 29.56 1517 171 0  59  287  236 29% 23 1595422 2300 37%
c i 29.59 1517 169 0  59  291  239 29% 23 1595422 2299 37%
c 
c  seconds     reductions  redundant   irredundant
c          MB      restarts       trail       variables
c             level   conflicts       glue         remaining
c 
c - 33.48 1448 164 1  59  300  247 29% 23 341373 2299 37%
c i 33.69 1401 164 1  59  303  249 29% 23 341373 2298 37%
c i 34.30 1401 149 1  65  353  286 29% 23 341373 2286 37%
c i 34.90 1401 134 1  71  440  358 29% 24 341373 2285 37%
c i 35.01 1401 128 1  71  467  382 29% 24 341373 2284 37%
c i 35.04 1401 127 1  71  473  387 29% 24 341373 2283 37%
c i 35.09 1401 113 1  71  549  443 29% 23 341373 2282 37%
c i 35.10 1401 111 1  71  562  452 29% 23 341373 2281 37%
c i 35.10 1401 110 1  71  563  452 29% 23 341373 2280 37%
c i 35.10 1401 110 1  71  564  452 29% 23 341373 2279 37%
c i 35.10 1401 109 1  71  571  458 29% 23 341373 2278 37%
c i 35.11 1401 109 1  71  573  458 29% 23 341373 2277 37%
c i 35.11 1401 108 1  71  578  460 29% 23 341373 2276 37%
c i 35.11 1401 107 1  71  584  464 29% 23 341373 2275 37%
c i 35.29 1401 93 1  71  699  544 29% 22 341373 2274 37%
c i 35.56 1402 90 1  71  730  570 29% 22 341373 2273 37%
c i 35.57 1402 90 1  71  732  571 29% 22 341373 2272 37%
c i 35.67 1402 87 1  71  776  606 29% 22 341373 2271 37%
c i 35.68 1402 86 1  71  788  617 29% 22 341373 2270 37%
c i 35.68 1402 86 1  71  789  617 29% 22 341373 2269 37%
c 
c  seconds    reductions  redundant   irredundant
c          MB     restarts       trail       variables
c            level   conflicts       glue         remaining
c 
c i 35.73 1402 85 1  71  799  626 29% 22 341373 2268 37%
c i 35.74 1402 85 1  71  800  626 29% 22 341373 2267 37%
c i 35.81 1402 83 1  73  839  646 29% 23 341373 2266 37%
c i 35.81 1402 83 1  74  842  648 29% 22 341373 2265 37%
c i 35.81 1402 82 1  75  843  648 29% 22 341373 2264 37%
c i 35.90 1402 80 1  75  882  669 29% 22 341373 2263 37%
c i 35.96 1402 79 1  75  901  685 29% 22 341373 2262 37%
c } 37.17 1402 76 1  88 1000  763 29% 24 341373 2262 37%
c [ 37.17 1402  0 1  88 1000  763  0% 0 341373 2262 37%
c O 37.26 1402  4 1  88 1002  764 24% 1 341373 2262 37%
c i 37.26 1402  4 1  88 1002  764 24% 1 341373 2248 36%
c i 37.63 1403 12 1  88 1053  795 28% 9 341373 2247 36%
c i 37.64 1403 12 1  88 1056  797 28% 9 341373 2246 36%
c i 37.70 1403 12 1  88 1078  805 29% 9 341373 2245 36%
c i 37.75 1403 12 1  88 1097  813 30% 10 341373 2244 36%
c i 37.85 1403 12 1  88 1140  832 30% 10 341373 2243 36%
c i 37.93 1403 13 1  88 1209  866 31% 11 341373 2242 36%
c - 38.67 1550 13 2  88 1223  767 31% 11 340805 2242 36%
c ] 39.04 1550 13 2  88 1284  800 31% 11 340805 2242 36%
c 1 39.04 1550 13 2  88 1284  800 31% 11 340805 2242 36%
c 
c --- [ writing output ] -----------------------------------------------------
c 
c writing simplified CNF to DIMACS file 'simp/33.cubes5924.adj.simp1'
c 
c  seconds    reductions  redundant   irredundant
c          MB     restarts       trail       variables
c            level   conflicts       glue         remaining
c 
c * 39.04 1550 13 2  88 1284  800 31% 11 340805 2242 36%
c opening file to write 'simp/33.cubes5924.adj.simp1'
c writing 'p cnf 6160 340805' header
c closing file 'simp/33.cubes5924.adj.simp1'
c after writing 172358206 bytes 164.4 MB
c wrote 340805 clauses in 1.32 seconds process time
c 
c --- [ writing extension ] --------------------------------------------------
c 
c writing extension stack to 'simp/33.cubes5924.adj.ext1'
c opening file to write 'simp/33.cubes5924.adj.ext1'
c closing file 'simp/33.cubes5924.adj.ext1'
c after writing 11412 bytes 0.0 MB
c wrote 774 witnesses in 0.00 seconds process time
c 
c --- [ result ] -------------------------------------------------------------
c 
s SATISFIABLE
c 
c --- [ run-time profiling ] -------------------------------------------------
c 
c process time taken by individual solving procedures
c (percentage relative to process time for solving)
c 
c        20.55  111.16% parse
c        18.49  100.00% search
c        15.37   83.15% unstable
c         1.87   10.12% stable
c         1.24    6.72% lucky
c         0.00    0.00% simplify
c   =================================
c        18.49   45.80% solve
c 
c last line shows process time for solving
c (percentage relative to total process time)
c 
c --- [ statistics ] ---------------------------------------------------------
c 
c chronological:               426        33.18 %  of conflicts
c conflicts:                  1284        69.45    per second
c decisions:                 14441       781.07    per second
c fixed:                       774        12.56 %  of all variables
c learned:                    1229        95.72 %  per conflict
c learned_lits:             168555       100.00 %  learned literals
c minimized:                     0         0.00 %  learned literals
c shrunken:                 109460        64.94 %  learned literals
c minishrunken:               9504         5.64 %  learned literals
c propagations:             242317         0.01 M  per second
c reduced:                     103         8.02 %  per conflict
c rephased:                      1      1284.00    interval
c restarts:                     88        14.59    interval
c stabilizing:                   1        22.12 %  of conflicts
c subsumed:                    273         0.01 %  of all clauses
c 
c seconds are measured in process time for solving
c 
c --- [ resources ] ----------------------------------------------------------
c 
c total process time since initialization:        40.37    seconds
c total real time since initialization:           40.89    seconds
c maximum resident set size of process:         1549.72    MB
c 
c --- [ shutting down ] ------------------------------------------------------
c 
c exit 10
WARNING! DIMACS header mismatch: wrong number of variables.
============================[ Problem Statistics ]=============================
|                                                                             |
|  Number of variables:          6120                                         |
|  Number of clauses:          340805                                         |
|  Parse time:                   2.35 s                                       |
|  Simplification time:          0.06 s                                       |
|                                                                             |
============================[ Search Statistics ]====================================================
| Conflicts |          ORIGINAL         |          LEARNT          | Num Sols |      SUBGRAPHS      |
|           |    Vars  Clauses Literals |    Limit  Clauses Lit/Cl |          | Canonical Noncanon. |
=====================================================================================================
|       127 |    6021   340832 36926159 |     2000      123     60 |        0 |        38        27 |
|       280 |    6014   340835 36926522 |     2000      269     82 |        0 |        48        30 |
|       535 |    6007   340865 36927246 |     2000      517     75 |        0 |        59        60 |
|      1089 |    6004   341082 36931819 |     2000     1068     65 |        0 |       139       277 |
|      3153 |    6002   342640 36951791 |     3590     2143     11 |        0 |       465      1835 |
|      6726 |    6002   345454 36980794 |     4996     3922      9 |        0 |       992      4649 |
|      9121 |    5991   346710 36995562 |     6302     3816     22 |        0 |      1206      5905 |
|     11174 |    5987   347055 37000411 |     6302     5865     39 |        0 |      1268      6250 |
|     14841 |    5983   348160 37012001 |     7552     6389     30 |        0 |      1390      7355 |
=====================================================================================================
Number of solutions   : 0
Canonical subgraphs   : 1424           (9 /sec)
          order  3    : 1              (125000 /sec)
          order  4    : 1              (500000 /sec)
          order  5    : 1              (250000 /sec)
          order  6    : 1              (58824 /sec)
          order  7    : 1              (7463 /sec)
          order  8    : 2              (1322 /sec)
          order  9    : 6              (311 /sec)
          order 10    : 15             (68 /sec)
          order 11    : 57             (18 /sec)
          order 12    : 348            (8 /sec)
          order 13    : 629            (9 /sec)
          order 14    : 232            (12 /sec)
          order 15    : 118            (8 /sec)
          order 16    : 6              (4 /sec)
          order 17    : 6              (3 /sec)
          order 18    : 0              (-nan /sec)
          order 19    : 0              (-nan /sec)
          order 20    : 0              (-nan /sec)
          order 21    : 0              (-nan /sec)
          order 22    : 0              (-nan /sec)
Noncanonical subgraphs: 7839           (311 /sec)
          order  3    : 0              (-nan /sec)
          order  4    : 0              (-nan /sec)
          order  5    : 0              (-nan /sec)
          order  6    : 0              (-nan /sec)
          order  7    : 0              (-nan /sec)
          order  8    : 0              (-nan /sec)
          order  9    : 0              (-nan /sec)
          order 10    : 0              (-nan /sec)
          order 11    : 0              (-nan /sec)
          order 12    : 0              (-nan /sec)
          order 13    : 2027           (4919 /sec)
          order 14    : 4075           (543 /sec)
          order 15    : 1413           (110 /sec)
          order 16    : 292            (76 /sec)
          order 17    : 20             (82 /sec)
          order 18    : 12             (34 /sec)
          order 19    : 0              (-nan /sec)
          order 20    : 0              (-nan /sec)
          order 21    : 0              (-nan /sec)
Canonicity checking   : 150.862 s
Noncanonicity checking: 25.2141 s
Total canonicity time : 176.076 s
database reductions   : 5
restarts              : 63
conflicts             : 16319          (81 /sec)
decisions             : 49791          (0.00 % random) (246 /sec)
propagations          : 2162983        (10698 /sec)
conflict literals     : 597011         (55.73 % deleted)
actual reward         : 0.071054
Memory used           : 240.00 MB
CPU time              : 202.178 s

UNSATISFIABLE
